
Gurobi 12.0.1 (linux64, Python) logging started Mon Aug  4 18:44:46 2025

Set parameter Username
Set parameter LogFile to value "gurobi.log"
Academic license - for non-commercial use only - expires 2026-02-19
